N = 8;
H = 6;
T = 2;

avail = array3d(1..N, 1..H, 1..T, [0, 6, 6, 10, 7, 8, 10, 9, 4, 5, 0, 8, 1, 1, 7, 3, 9, 2, 10, 8, 7, 8, 7, 8, 10, 5, 4, 2, 6, 1, 8, 10, 5, 3, 6, 6, 10, 6, 3, 2, 8, 0, 3, 0, 6, 10, 4, 4, 1, 2, 10, 1, 4, 5, 2, 8, 3, 2, 3, 3, 9, 9, 7, 9, 8, 8, 1, 10, 2, 8, 5, 5, 8, 7, 8, 3, 7, 5, 1, 4, 8, 4, 4, 9, 2, 10, 10, 7, 4, 0, 10, 10, 2, 7, 10, 4]);

r = array2d(1..H, 1..T, [1, 2, 3, 0, 2, 2, 1, 0, 1, 3, 2, 0]);
